sat
(
  (define-fun G () String
    "")
  (define-fun I () String
    "baa")
  (define-fun F () String
    "")
  (define-fun E () String
    "aab")
  (define-fun H () String
    "")
  (define-fun K () String
    "baa")
  (define-fun M () String
    "")
)
